 vasp.6.4.3 19Mar24 (build Jun 20 2024 15:56:09) complex
 executed on    LinuxNV_CrayMPICH date 2025.05.15  16:25:18

 INCAR:
   SYSTEM = HAT-Cu
   ISTART = 0
   ICHARG = 11
   PREC = Accurate
   ADDGRID = .FALSE.
   SYMPREC = 1E-5
   ENCUT = 400
   EDIFF = 1E-6
   LREAL = Auto
   ALGO = Normal
   LWAVE = .FALSE.
   LCHARG = .FALSE.
   LORBIT = 11
   LAECHG = .FALSE.
   LVTOT = .FALSE.
   LVHAR = .FALSE.
   NEDOS = 9001
   NSW = 0
   IBRION = -1
   EDIFFG = -0.01
   ISIF = 2
   IVDW = 11
   LDIPOL = .TRUE.
   IDIPOL = 3
   ISPIN = 1
   LSORBIT = .FALSE.
   LMAXMIX = 2
   LDAU = .FALSE.
   LDAUTYPE = 2
   LDAUPRINT = 0
   ISMEAR = -5
   SIGMA = 0.05
   NCORE = 32
   KPAR = 4

 POTCAR:    PAW_PBE Cu 22Jun2005
 POTCAR:    PAW_PBE Ag 02Apr2005
 POTCAR:    PAW_PBE H 15Jun2001
 POTCAR:    PAW_PBE C 08Apr2002
 POTCAR:    PAW_PBE N 08Apr2002
 POTCAR:    PAW_PBE Cu 22Jun2005
   VRHFIN =Cu: d10 p1

   TITEL  = PAW_PBE Cu 22Jun2005
   POMASS =   63.546; ZVAL   =   11.000    mass and valenz
   ENMAX  =  295.446; ENMIN  =  221.585 eV

   TITEL  = PAW_PBE Ag 02Apr2005
   POMASS =  107.868; ZVAL   =   11.000    mass and valenz
   ENMAX  =  249.844; ENMIN  =  187.383 eV

   TITEL  = PAW_PBE H 15Jun2001
   POMASS =    1.000; ZVAL   =    1.000    mass and valenz
   ENMAX  =  250.000; ENMIN  =  200.000 eV

[...]

   TITEL  = PAW_PBE N 08Apr2002
   POMASS =   14.001; ZVAL   =    5.000    mass and valenz
   ENMAX  =  400.000; ENMIN  =  300.000 eV

 Optimization of the real space projectors (new method)

 maximal supplied QI-value         = 16.25
 optimisation between [QCUT,QGAM] = [ 10.24, 20.48] = [ 29.35,117.42] Ry
 Optimized for a Real-space Cutoff    1.55 Angstroem

   l    n(q)    QCUT    max X(q) W(low)/X(q) W(high)/X(q)  e(spline)
   2      9    10.239     4.610    0.85E-04    0.29E-03    0.14E-06
   2      9    10.239     8.522    0.15E-03    0.50E-03    0.27E-06
   0     10    10.239    51.609    0.45E-04    0.99E-04    0.10E-06
   0     10    10.239    27.747    0.40E-04    0.93E-04    0.97E-07
   1      9    10.239    20.408    0.15E-03    0.78E-05    0.15E-06
   1      9    10.239    13.425    0.13E-03    0.71E-05    0.14E-06
 Optimization of the real space projectors (new method)

[...]

   l    n(q)    QCUT    max X(q) W(low)/X(q) W(high)/X(q)  e(spline)
   0      9    10.053   115.676    0.19E-03    0.21E-03    0.38E-06
   0      9    10.053    87.132    0.19E-03    0.21E-03    0.38E-06
   1      9    10.053     4.429    0.87E-04    0.11E-03    0.39E-06
   1      9    10.053     2.733    0.59E-04    0.62E-04    0.43E-06
 Optimization of the real space projectors (new method)

 maximal supplied QI-value         = 25.13
 optimisation between [QCUT,QGAM] = [ 10.05, 20.36] = [ 28.30,116.06] Ry
 Optimized for a Real-space Cutoff    1.70 Angstroem

   l    n(q)    QCUT    max X(q) W(low)/X(q) W(high)/X(q)  e(spline)
   0     10    10.053    79.467    0.61E-04    0.98E-04    0.61E-06
   0     10    10.053    66.151    0.60E-04    0.98E-04    0.61E-06
   1     10    10.053     8.350    0.17E-03    0.71E-03    0.45E-05
   1     10    10.053     5.531    0.18E-03    0.77E-03    0.49E-05
  PAW_PBE Cu 22Jun2005                  :
  PAW_PBE Ag 02Apr2005                  :
  PAW_PBE H 15Jun2001                   :
  PAW_PBE C 08Apr2002                   :
  PAW_PBE N 08Apr2002                   :

 POSCAR: Cu3 Ag125 H37 C24 N12
  positions in direct lattice
  velocities in cartesian coordinates
 IVDW         = 11
 VDW_S6       =    1.0000
 VDW_S8       =    0.7220
 VDW_SR       =    1.2170
 VDW_RADIUS   =   50.2022 A
 VDW_CNRADIUS =   21.1671 A

 exchange-correlation table for PE
   RHO(1)=    0.500       N(1)  =     2000
   RHO(2)=  100.500       N(2)  =     4000

 ion  position               nearest neighbor table
   1  0.131  0.131  0.319- 195 2.18 197 2.18  78 3.00  74 3.01  58 3.01
   2  0.171  0.635  0.319- 193 2.03 194 2.04  76 2.82  56 3.01
   3  0.635  0.171  0.319- 198 2.03 199 2.04  68 2.82  64 3.01
   4  0.133  0.133  0.127-  29 2.86  33 2.87  49 2.87  79 2.93  80 2.93  84 2.93   5 2.93   8 2.93
                             9 2.93  13 2.93  24 2.93  25 2.93
   5  0.133  0.333  0.127-  30 2.86  29 2.87  50 2.87  80 2.93  81 2.93  85 2.93   6 2.93  26 2.93
                            25 2.93   4 2.93   9 2.93  10 2.93
   6  0.133  0.533  0.127-  30 2.85  31 2.86  51 2.87  81 2.93  82 2.93  86 2.93   5 2.93  10 2.93
                            26 2.93  27 2.93   7 2.93  11 2.93
   7  0.133  0.733  0.127-  52 2.85  31 2.86  32 2.87  82 2.93  83 2.93  87 2.93   8 2.93  28 2.93
                            27 2.93   6 2.93  11 2.93  12 2.93
   8  0.133  0.933  0.127-  53 2.86  33 2.87  32 2.87  83 2.93  88 2.93  79 2.93   7 2.93  12 2.93
                            24 2.93  28 2.93   4 2.93  13 2.93
   9  0.333  0.133  0.127-  34 2.86  29 2.87  38 2.87  84 2.93  89 2.93  85 2.93  14 2.93  18 2.93
                             4 2.93   5 2.93  10 2.93  13 2.93
  10  0.333  0.333  0.127-  30 2.86  34 2.86  35 2.88  85 2.93  86 2.93  90 2.93  11 2.93  15 2.93
                             6 2.93  14 2.93   9 2.93   5 2.93
  11  0.333  0.533  0.127-  36 2.87  31 2.87  35 2.89  86 2.93  91 2.93  87 2.93  10 2.93  15 2.93
                            16 2.93  12 2.93   7 2.93   6 2.93
  12  0.333  0.733  0.127-  37 2.86  32 2.86  36 2.88  87 2.93  88 2.93  92 2.93  13 2.93  17 2.93
                             8 2.93  16 2.93  11 2.93   7 2.93
  13  0.333  0.933  0.127-  38 2.86  33 2.86  37 2.87  88 2.93  93 2.93  84 2.93  12 2.93  17 2.93
                            18 2.93   4 2.93   8 2.93   9 2.93
  14  0.533  0.133  0.127-  34 2.85  39 2.86  43 2.87  89 2.93  90 2.93  94 2.93   9 2.93  10 2.93
                            19 2.93  23 2.93  15 2.93  18 2.93
  15  0.533  0.333  0.127-  40 2.87  39 2.87  35 2.89  90 2.93  91 2.93  95 2.93  10 2.93  11 2.93
                            16 2.93  14 2.93  19 2.93  20 2.93
  16  0.533  0.533  0.127-  41 2.86  40 2.88  36 2.88  91 2.93  92 2.93  96 2.93  11 2.93  15 2.93
                            20 2.93  12 2.93  17 2.93  21 2.93
  17  0.533  0.733  0.127-  42 2.85  37 2.87  41 2.87  92 2.93  93 2.93  97 2.93  12 2.93  13 2.93
                            18 2.93  16 2.93  21 2.93  22 2.93
  18  0.533  0.933  0.127-  42 2.86  43 2.87  38 2.89  93 2.93  89 2.93  98 2.93  13 2.93  17 2.93
                            22 2.93   9 2.93  14 2.93  23 2.93
  19  0.733  0.133  0.127-  48 2.85  39 2.86  44 2.87  94 2.93  99 2.93  95 2.93  24 2.93  28 2.93
                            14 2.93  15 2.93  20 2.93  23 2.93
  20  0.733  0.333  0.127-  45 2.86  44 2.86  40 2.88  95 2.93  96 2.93 100 2.93  21 2.93  25 2.93
                            16 2.93  24 2.93  19 2.93  15 2.93
  21  0.733  0.533  0.127-  46 2.85  45 2.87  41 2.87  96 2.93 101 2.93  97 2.93  20 2.93  25 2.93
                            26 2.93  22 2.93  17 2.93  16 2.93
  22  0.733  0.733  0.127-  47 2.84  46 2.87  42 2.87  97 2.93  98 2.93 102 2.93  23 2.93  27 2.93
                            18 2.93  26 2.93  21 2.93  17 2.93
  23  0.733  0.933  0.127-  48 2.85  47 2.85  43 2.86  98 2.93 103 2.93  94 2.93  22 2.93  27 2.93
                            28 2.93  14 2.93  18 2.93  19 2.93
  24  0.933  0.133  0.127-  53 2.86  49 2.87  44 2.87  99 2.93  79 2.93 100 2.93  19 2.93  20 2.93
                            25 2.93  28 2.93   4 2.93   8 2.93
  25  0.933  0.333  0.127-  50 2.86  49 2.86  45 2.87 100 2.93 101 2.93  80 2.93  20 2.93  21 2.93
                            26 2.93   5 2.93  24 2.93   4 2.93
  26  0.933  0.533  0.127-  46 2.86  51 2.87  50 2.89 101 2.93  81 2.93 102 2.93  21 2.93  25 2.93
                             5 2.93  22 2.93   6 2.93  27 2.93
  27  0.933  0.733  0.127-  52 2.85  47 2.85  51 2.86 102 2.93 103 2.93  82 2.93  22 2.93  23 2.93
                            28 2.93   7 2.93  26 2.93   6 2.93
  28  0.933  0.933  0.127-  48 2.86  52 2.86  53 2.87 103 2.93  99 2.93  83 2.93  23 2.93  27 2.93
                             7 2.93  19 2.93  24 2.93   8 2.93
  29  0.200  0.200  0.189-  54 2.86   4 2.86   9 2.87   5 2.87  58 2.91  74 2.91  50 2.92  38 2.92
                            33 2.93  49 2.93  34 2.95  30 2.95
  30  0.199  0.401  0.189-  54 2.84   6 2.85   5 2.86  10 2.86  75 2.87  55 2.88  31 2.93  35 2.93
                            51 2.93  50 2.93  29 2.95  34 2.95
  31  0.199  0.600  0.189-   7 2.86   6 2.86  55 2.87  11 2.87  56 2.87  52 2.91  51 2.92  32 2.93
                            36 2.93  30 2.93  76 2.93  35 2.94
  32  0.201  0.799  0.189-  77 2.86  12 2.86   7 2.87   8 2.87  57 2.88  56 2.89  37 2.92  36 2.92
                            31 2.93  33 2.93  52 2.94  53 2.94
  33  0.200  0.999  0.189-  13 2.86   8 2.87   4 2.87  78 2.88  57 2.89  58 2.91  38 2.91  53 2.92
                            29 2.93  37 2.93  32 2.93  49 2.95
  34  0.401  0.199  0.189-  54 2.84  14 2.85   9 2.86  10 2.86  63 2.87  59 2.88  39 2.93  35 2.93
                            43 2.93  38 2.93  29 2.95  30 2.95
  35  0.400  0.400  0.190-  55 2.88  59 2.88  10 2.88  11 2.89  15 2.89  60 2.89  40 2.93  36 2.93
                            34 2.93  30 2.93  39 2.94  31 2.94
  36  0.399  0.599  0.189-  11 2.87  12 2.88  16 2.88  60 2.88  61 2.88  56 2.89  32 2.92  35 2.93
                            31 2.93  40 2.93  37 2.93  41 2.94
  37  0.400  0.799  0.189-  12 2.86  17 2.87  13 2.87  57 2.87  62 2.88  61 2.90  32 2.92  42 2.93
                            41 2.93  33 2.93  38 2.93  36 2.93
  38  0.399  0.000  0.189-  63 2.84  13 2.86   9 2.87  62 2.88  18 2.89  33 2.91  58 2.91  29 2.92
                            37 2.93  34 2.93  42 2.94  43 2.96
  39  0.600  0.199  0.189-  19 2.86  14 2.86  59 2.87  15 2.87  64 2.87  48 2.91  43 2.92  44 2.93
                            40 2.93  34 2.93  68 2.93  35 2.94
  40  0.599  0.399  0.189-  15 2.87  20 2.88  16 2.88  60 2.88  65 2.88  64 2.89  44 2.92  35 2.93
                            39 2.93  36 2.93  45 2.93  41 2.94
  41  0.600  0.600  0.189-  16 2.86  17 2.87  21 2.87  61 2.90  65 2.90  66 2.90  45 2.93  37 2.93
                            46 2.93  42 2.93  36 2.94  40 2.94
  42  0.599  0.800  0.189-  17 2.85  18 2.86  22 2.87  67 2.87  62 2.88  66 2.91  37 2.93  47 2.93
                            41 2.93  46 2.93  43 2.94  38 2.94
  43  0.601  0.999  0.189-  63 2.85  23 2.86  18 2.87  14 2.87  67 2.88  48 2.91  47 2.92  68 2.92
                            39 2.92  34 2.93  42 2.94  38 2.96
  44  0.799  0.201  0.189-  73 2.86  20 2.86  19 2.87  24 2.87  69 2.88  64 2.89  45 2.92  40 2.92
                            39 2.93  49 2.93  48 2.94  53 2.94
  45  0.799  0.400  0.189-  20 2.86  21 2.87  25 2.87  69 2.87  70 2.88  65 2.90  44 2.92  46 2.93
                            41 2.93  49 2.93  50 2.93  40 2.93
  46  0.800  0.599  0.189-  21 2.85  26 2.86  22 2.87  71 2.87  70 2.88  66 2.91  45 2.93  47 2.93
                            41 2.93  42 2.93  51 2.94  50 2.94
  47  0.799  0.799  0.189-  72 2.82  22 2.84  27 2.85  23 2.85  71 2.88  67 2.88  51 2.92  43 2.92
                            46 2.93  42 2.93  52 2.95  48 2.95
  48  0.799  0.000  0.189-  72 2.84  73 2.84  23 2.85  19 2.85  28 2.86  43 2.91  39 2.91  68 2.94
[...]
  319                  map_gather                            0.001150                  1   8
  320                  m_alltoallv_z                         0.003443                  1   8
  321                  map_scatter                           0.001127                  1   8
  322                map_forward                           0.014595                    4   7
  323                  map_gather                            0.004009                  2   8
  324                  m_alltoallv_z                         0.008375                  2   8
  325                  map_scatter                           0.002186                  2   8
  326          m_max_i                               0.001970                          1   4
  327          m_sumb_d                              0.000029                          2   4
  328          pothar                                0.005313                          1   4
  329            m_sumb_d                              0.002294                        1   5
  330        m_bcast_d                             0.159572                            2   3
  331      potlok                                0.234443                              1   2
  332        fft3d_mpi                             0.112458                           13   3
  333          fftbrc_mpi                            0.109390                         13   4
  334            fftbas_plan_mpi                       0.109375                       13   5
  335              dfftw_execute                         0.031652                     39   6
  336              map_forward                           0.042675                     14   6
  337                map_gather                            0.014076                    8   7
  338                m_alltoallv_z                         0.024636                    8   7
  339                map_scatter                           0.003884                    8   7
  340              map_backward                          0.034704                     12   6
  341                map_gather                            0.008613                    6   7
  342                m_alltoallv_z                         0.019469                    6   7
  343                map_scatter                           0.006546                    6   7
  344        m_sumb_d                              0.000829                            8   3
  345        m_max_i                               0.000013                            1   3
  346        fewald                                0.000340                            2   3
  347          rsp                                   0.000280                          2   4
  348          rcp                                   0.000050                          2   4
  349        pothar                                0.004909                            1   3
  350          m_sumb_d                              0.000695                          1   4
  351        m_bcast_d                             0.000378                            1   3
  352      set_dd_magatom                        0.000000                              1   2
  353      set_dd_paw                            0.007747                              1   2
  354        set_rsgf_all                          0.000001                            1   3
  355        m_sumb_d                              0.007709                            8   3
  356      densta                                2.378199                              1   2
  357        m_bcast_z                             0.000182                            1   3
  358        m_alltoall_d                          1.473126                           20   3
  359        m_sumb_d                              0.063088                           49   3
  360      m_alltoall_d                          1.345598                             16   2

 Flat profile

 ggemm                                1337.201530       87319
 m_bcast_z                            1236.050082      160304
 orth1                                1207.816716      204837
 dfftw_execute                         675.935661     2540790
 m_alltoallv_z                         405.664937      846933
 vhamil                                291.020033      272476
 m_alltoall_d                          284.008052     2123596
 m_sumb_d                              234.939294     1407547
 fftwav_mpi                            226.328871      574409
 wfinit                                214.696747           1
 crrexp_mul_work_add                   133.302976    33242072
 gemm                                  125.566490     8310518
 rpromu_gemm                           118.860770     9013238
 crrexp_mul_wave                       101.547983    36052952
 total_time                            101.527676           1
 lincom                                 85.603229         176
 eddav                                  64.244884          10
 map_gather                             45.462376      846933
 map_scatter                            42.547739      846933
 map_forward                            40.747438     1148864
 pdssyex_zheevx                         28.958404         160
 rpromu                                 22.979945       73879
 lapack                                 21.445817       68119
 racc0mu                                21.307382       68119
 w1_copy                                20.212403      817428
 sphpro_fast                            17.442936           2
 eccp                                   16.923834       76800
 fftbas_plan_mpi                        12.512026      846930
 redis_pw                                7.280442      740980
 kinhamil                                6.798737      272476
 apply_precond                           6.505674      195676
 fftext_mpi                              5.850368      272476
 m_bcast_d                               5.479749      136745
 kpar_sync_all                           5.479099           1
 densta                                  2.709333          11
 force_and_stress                        1.873902           1
 overl                                   1.818674      468168
 choleski                                1.682691          16
 setup_precond                           1.666641       76800
 overl1                                  1.621641      272476
 redis_proj                              1.476714      936672
 map_backward                            1.467107      544996
 hamiltmu                                1.146946       68119
 newband                                 0.840209       68279
 raccmu_                                 0.834915       68119
 phaser                                  0.644482         368
 fft3d_mpi                               0.628392      846930
 fftwav_w1                               0.620020      474569
 w1_projall                              0.539714       48919
 fftbas_mpi                              0.472047      846885
 pw_charge                               0.449845        6417
 rpro_isp                                0.431468         208
 orthch                                  0.346550           1
 elmin                                   0.297663           1
 rspher_all                              0.245608          14
 potlok                                  0.240976           2
 strkin                                  0.212251           1
 strnlr                                  0.205140           1
 forhar                                  0.193447           2
 stufak                                  0.158607           2
 set_charge                              0.157737           1
 setdij_                                 0.150941          29
 forloc                                  0.107880           1
 potxc                                   0.100286           1
 truncate_high_frequency_w1              0.078840      349276
 fornlr                                  0.068599           1
 depsum                                  0.029186           1
 strelo                                  0.022896           1
 strehar                                 0.019928           1
 chggra                                  0.016301           1
 soft_charge                             0.015141           1
 augmentation_charge                     0.012536           1
 pothar                                  0.011391           3
 inisym                                  0.010704           1
 m_max_i                                 0.007452          28
 rad_lda_xc                              0.007126          40
 setwdes                                 0.006127        6219
 rsp                                     0.003888           7
 rad_gga_xc                              0.002784          40
 bandgap                                 0.002193           1
 fewald                                  0.001529           7
 rad_pot                                 0.000972          40
 splval                                  0.000935        7429
 splcof                                  0.000576          88
 rcp                                     0.000290           7
 set_dd_paw                              0.000220           3
 proall                                  0.000207           1
 fordep                                  0.000187           1
 rad_proj                                0.000112          20
 posmap                                  0.000106           2
 fftbrc_mpi                              0.000044          45
 crpa_reader                             0.000031           1
 fermat_razor                            0.000023           1
 fft_gq                                  0.000022           1
 rad_aug_charge                          0.000018           5
 vectorpot                               0.000007           2
 rad_pot_weight                          0.000007          20
 rad_aug_proj                            0.000006          10
 set_rsgf_all                            0.000004           3
 redis_pw_over_bands                     0.000001           1
 set_dd_magatom                          0.000000           3
 rotate_active_occupied_orbital          0.000000           1
  summed up times     7195.912515878677

 Accumulative profile

 total_time                           7195.912516           1
 elmin                                5322.373236           1
 eddav                                5318.951802          10
 wfinit                               1463.170858           1
 ggemm                                1337.201530       87319
 m_bcast_z                            1236.050082      160304
 fft3d_mpi                            1225.437768      846930
 fftbas_mpi                           1224.406655      846885
 fftbas_plan_mpi                      1224.337285      846930
 orth1                                1207.816716      204837
 hamiltmu                             1108.848238       68119
 fftwav_mpi                           1016.193217      574409
 fftwav_w1                             884.434347      474569
 dfftw_execute                         675.935661     2540790
 kinhamil                              447.810807      272476
 fftext_mpi                            441.012071      272476
 m_alltoallv_z                         405.664937      846933
 map_forward                           385.269917     1148864
 raccmu_                               368.870451       68119
 racc0mu                               366.413895       68119
 rpromu                                333.252669       73879
 vhamil                                291.020033      272476
 m_alltoall_d                          284.008052     2123596
 force_and_stress                      238.988759           1
 rpro_isp                              234.988651         208
 m_sumb_d                              234.939294     1407547
 w1_projall                            231.615139       48919
 newband                               184.708995       68279
 strnlr                                170.198402           1
 map_backward                          150.619680      544996
 crrexp_mul_work_add                   133.302976    33242072
 redis_pw                              132.551719      740980
 gemm                                  125.566490     8310518
 rpromu_gemm                           118.860770     9013238
 crrexp_mul_wave                       101.547983    36052952
 lincom                                 85.603229         176
 fornlr                                 57.152169           1
 map_gather                             45.462376      846933
 map_scatter                            42.547739      846933
 redis_proj                             41.355015      936672
 pdssyex_zheevx                         28.958427         160
 sphpro_fast                            27.349169           2
 eccp                                   25.886477       76800
 lapack                                 21.445817       68119
 w1_copy                                20.212403      817428
 proall                                 18.609058           1
 orthch                                 13.039652           1
 set_charge                              8.579413           1
 soft_charge                             8.270719           1
 apply_precond                           6.505674      195676
 kpar_sync_all                           5.537191           1
 m_bcast_d                               5.479749      136745
 densta                                  4.715651          11
 setup_precond                           3.209884       76800
 overl                                   1.818674      468168
 choleski                                1.682691          16
 overl1                                  1.621641      272476
 phaser                                  0.644482         368
 potlok                                  0.497536           2
 pw_charge                               0.449845        6417
 fftbrc_mpi                              0.402721          45
 rspher_all                              0.245608          14
 setdij_                                 0.233384          29
 strkin                                  0.212277           1
 potxc                                   0.211881           1
 forhar                                  0.194082           2
 stufak                                  0.158607           2
 fewald                                  0.155151           7
 forloc                                  0.107938           1
 truncate_high_frequency_w1              0.078840      349276
 chggra                                  0.051441           1
 fordep                                  0.046957           1
 augmentation_charge                     0.041415           1
 depsum                                  0.034786           1
 strelo                                  0.026787           1
 strehar                                 0.021246           1
 pothar                                  0.015437           3
 set_dd_paw                              0.011918           3
 rad_pot                                 0.010882          40
 inisym                                  0.010810           1
 m_max_i                                 0.007452          28
 rad_lda_xc                              0.007126          40
 setwdes                                 0.006127        6219
 rsp                                     0.003888           7
 rad_gga_xc                              0.002784          40
 bandgap                                 0.002193           1
 fft_gq                                  0.001443           1
 splval                                  0.000935        7429
 splcof                                  0.000576          88
 rcp                                     0.000290           7
 rad_proj                                0.000112          20
 posmap                                  0.000106           2
 crpa_reader                             0.000031           1
 fermat_razor                            0.000023           1
 rad_aug_charge                          0.000018           5
 vectorpot                               0.000007           2
 rad_pot_weight                          0.000007          20
 rad_aug_proj                            0.000006          10
 set_rsgf_all                            0.000004           3
 redis_pw_over_bands                     0.000001           1
 set_dd_magatom                          0.000000           3
 rotate_active_occupied_orbital          0.000000           1

Profiling took  15.827001  9.197914  0.009363  0.009276 seconds
Profiling took  11.215375 seconds